100
32
30
23
1
24
31
15
5
17
18
4
7
15
25
26
31
21
19
9
32
26
2
32
23
2
12
5
26
1
2
13
24
17
27
12
11
25
17
25
11
16
4
9
22
12
23
16
31
12
31
30
4
8
16
31
1
2
24
7
4
5
20
29
13
16
2
14
11
32
27
10
3
14
4
29
7
17
27
18
13
25
32
21
21
21
19
27
25
29
10
12
20
32
29
21
2
17
15
28
17
8